11 34
1 7 88933 1
1 8 149283 1
1 9 59431 1
1 10 106353 1
2 3 129408 1
2 4 185588 1
2 5 164388 1
2 6 94297 1
2 8 114038 1
2 9 190093 1
2 10 164918 1
2 11 84016 1
3 4 121988 1
3 5 107148 1
3 6 139743 1
3 10 113773 1
3 11 136828 1
4 5 70159 1
4 6 124638 1
5 6 112978 1
5 7 103438 1
5 8 102643 1
6 8 91168 1
6 9 132588 1
7 8 187973 1
7 9 151933 1
7 10 119603 1
7 11 93403 1
8 9 121193 1
8 10 130203 1
8 11 124638 1
9 10 150343 1
9 11 125698 1
10 11 117218 1
27
1 3
1 4
1 8
1 9
1 10
1 11
2 4
2 5
2 9
2 10
2 11
3 5
3 6
3 10
3 11
4 6
4 7
4 11
5 7
5 8
6 8
6 9
7 9
7 10
8 10
8 11
9 11
6
1
1


5
